\Written from user model (presolvestate=0x680061)
\Problem name: basic_bikes                                                      
\FICO Xpress v9.7.0, Hyper, written 3:26:10, Nov 8, 2025

Maximize

__OBJ___: 0

Subject To
R1: - x_0 + y_0 >= 0 
R2: - x_1 + y_1 >= 0 
R3: - x_2 + y_2 >= 0 
R4: - x_3 + y_3 >= 0 
R5: - x_4 + y_4 >= 0 
R6: - x_5 + y_5 >= 0 
R7: - x_6 + y_6 >= 0 
R8: - x_7 + y_7 >= 0 
R9: - x_8 + y_8 >= 0 
R10: - x_9 + y_9 >= 0 
R11: - x_10 + y_10 >= 0 
R12: - x_11 + y_11 >= 0 
R13: - x_12 + y_12 >= 0 
R14: - x_13 + y_13 >= 0 
R15: - x_14 + y_14 >= 0 
R16: - x_15 + y_15 >= 0 
R17: - x_16 + y_16 >= 0 
R18: - x_17 + y_17 >= 0 
R19: - x_18 + y_18 >= 0 
R20: - x_19 + y_19 >= 0 
R21: - x_20 + y_20 >= 0 
R22: - x_21 + y_21 >= 0 
R23: - x_22 + y_22 >= 0 
R24: - x_23 + y_23 >= 0 
R25: - x_24 + y_24 >= 0 
R26: - x_25 + y_25 >= 0 
R27: - x_26 + y_26 >= 0 
R28: - x_27 + y_27 >= 0 
R29: - x_28 + y_28 >= 0 
R30: - x_29 + y_29 >= 0 
R31: - x_30 + y_30 >= 0 
R32: - x_31 + y_31 >= 0 
R33: - x_32 + y_32 >= 0 
R34: - x_33 + y_33 >= 0 
R35: - x_34 + y_34 >= 0 
R36: - x_35 + y_35 >= 0 
R37: - x_36 + y_36 >= 0 
R38: - x_37 + y_37 >= 0 
R39: - x_38 + y_38 >= 0 
R40: - x_39 + y_39 >= 0 
R41: - x_40 + y_40 >= 0 
R42: - x_41 + y_41 >= 0 
R43: - x_42 + y_42 >= 0 
R44: - x_43 + y_43 >= 0 
R45: - x_44 + y_44 >= 0 
R46: - x_45 + y_45 >= 0 
R47: - x_46 + y_46 >= 0 
R48: - x_47 + y_47 >= 0 
R49: - x_48 + y_48 >= 0 
R50: - x_49 + y_49 >= 0 
R51: - x_50 + y_50 >= 0 
R52: - x_51 + y_51 >= 0 
R53: - x_52 + y_52 >= 0 
R54: - x_53 + y_53 >= 0 
R55: - x_54 + y_54 >= 0 
R56: - x_55 + y_55 >= 0 
R57: - x_56 + y_56 >= 0 
R58: - x_57 + y_57 >= 0 
R59: - x_58 + y_58 >= 0 
R60: - x_59 + y_59 >= 0 
R61: - x_60 + y_60 >= 0 
R62: - x_61 + y_61 >= 0 
R63: - x_62 + y_62 >= 0 
R64: - x_63 + y_63 >= 0 
R65: - x_64 + y_64 >= 0 
R66: - x_65 + y_65 >= 0 
R67: - x_66 + y_66 >= 0 
R68: - x_67 + y_67 >= 0 
R69: - x_68 + y_68 >= 0 
R70: - x_69 + y_69 >= 0 
R71: - x_70 + y_70 >= 0 
R72: - x_71 + y_71 >= 0 
R73: - x_72 + y_72 >= 0 
R74: - x_73 + y_73 >= 0 
R75: - x_74 + y_74 >= 0 
R76: - x_75 + y_75 >= 0 
R77: - x_76 + y_76 >= 0 
R78: - x_77 + y_77 >= 0 
R79: - x_78 + y_78 >= 0 
R80: - x_79 + y_79 >= 0 
R81: - x_80 + y_80 >= 0 
R82: - x_81 + y_81 >= 0 
R83: - x_82 + y_82 >= 0 
R84: - x_83 + y_83 >= 0 
R85: - x_84 + y_84 >= 0 
R86: - x_85 + y_85 >= 0 
R87: - x_86 + y_86 >= 0 
R88: - x_87 + y_87 >= 0 
R89: - x_88 + y_88 >= 0 
R90: - x_89 + y_89 >= 0 
R91: - x_90 + y_90 >= 0 
R92: - x_91 + y_91 >= 0 
R93: - x_92 + y_92 >= 0 
R94: - x_93 + y_93 >= 0 
R95: - x_94 + y_94 >= 0 
R96: - x_95 + y_95 >= 0 
R97: - x_96 + y_96 >= 0 
R98: - x_97 + y_97 >= 0 
R99: - x_98 + y_98 >= 0 
R100: - x_99 + y_99 >= 0 
R101: - x_100 + y_100 >= 0 
R102: - x_101 + y_101 >= 0 
R103: - x_102 + y_102 >= 0 
R104: - x_103 + y_103 >= 0 
R105: - x_104 + y_104 >= 0 
R106: - x_105 + y_105 >= 0 
R107: - x_106 + y_106 >= 0 
R108: - x_107 + y_107 >= 0 
R109: - x_108 + y_108 >= 0 
R110: - x_109 + y_109 >= 0 
R111: - x_110 + y_110 >= 0 
R112: - x_111 + y_111 >= 0 
R113: - x_112 + y_112 >= 0 
R114: - x_113 + y_113 >= 0 
R115: - x_114 + y_114 >= 0 
R116: - x_115 + y_115 >= 0 
R117: - x_116 + y_116 >= 0 
R118: - x_117 + y_117 >= 0 
R119: - x_118 + y_118 >= 0 
R120: - x_119 + y_119 >= 0 
R121: - x_120 + y_120 >= 0 
R122: - x_121 + y_121 >= 0 
R123: - x_122 + y_122 >= 0 
R124: - x_123 + y_123 >= 0 
R125: - x_124 + y_124 >= 0 
R126: - x_125 + y_125 >= 0 
R127: - x_126 + y_126 >= 0 
R128: - x_127 + y_127 >= 0 
R129: - x_128 + y_128 >= 0 
R130: - x_129 + y_129 >= 0 
R131: - x_130 + y_130 >= 0 
R132: - x_131 + y_131 >= 0 
R133: - x_132 + y_132 >= 0 
R134: - x_133 + y_133 >= 0 
R135: - x_134 + y_134 >= 0 
R136: - x_135 + y_135 >= 0 
R137: - x_136 + y_136 >= 0 
R138: - x_137 + y_137 >= 0 
R139: - x_138 + y_138 >= 0 
R140: - x_139 + y_139 >= 0 
R141: - x_140 + y_140 >= 0 
R142: - x_141 + y_141 >= 0 
R143: - x_142 + y_142 >= 0 
R144: - x_143 + y_143 >= 0 
R145: - x_144 + y_144 >= 0 
R146: - x_145 + y_145 >= 0 
R147: - x_146 + y_146 >= 0 
R148: - x_147 + y_147 >= 0 
R149: - x_148 + y_148 >= 0 
R150: - x_149 + y_149 >= 0 
R151: - x_150 + y_150 >= 0 
R152: - x_151 + y_151 >= 0 
R153: - x_152 + y_152 >= 0 
R154: - x_153 + y_153 >= 0 
R155: - x_154 + y_154 >= 0 
R156: - x_155 + y_155 >= 0 
R157: - x_156 + y_156 >= 0 
R158: - x_157 + y_157 >= 0 
R159: - x_158 + y_158 >= 0 
R160: - x_159 + y_159 >= 0 
R161: - x_160 + y_160 >= 0 
R162: - x_161 + y_161 >= 0 
R163: - x_162 + y_162 >= 0 
R164: - x_163 + y_163 >= 0 
R165: - x_164 + y_164 >= 0 
R166: - x_165 + y_165 >= 0 
R167: - x_166 + y_166 >= 0 
R168: - x_167 + y_167 >= 0 
R169: - x_168 + y_168 >= 0 
R170: - x_169 + y_169 >= 0 
R171: - x_170 + y_170 >= 0 
R172: - x_171 + y_171 >= 0 
R173: - x_172 + y_172 >= 0 
R174: - x_173 + y_173 >= 0 
R175: - x_174 + y_174 >= 0 
R176: - x_175 + y_175 >= 0 
R177: - x_176 + y_176 >= 0 
R178: - x_177 + y_177 >= 0 
R179: - x_178 + y_178 >= 0 
R180: - x_179 + y_179 >= 0 
R181: - x_180 + y_180 >= 0 
R182: - x_181 + y_181 >= 0 
R183: - x_182 + y_182 >= 0 
R184: - x_183 + y_183 >= 0 
R185: - x_184 + y_184 >= 0 
R186: - x_185 + y_185 >= 0 
R187: - x_186 + y_186 >= 0 
R188: - x_187 + y_187 >= 0 
R189: - x_188 + y_188 >= 0 
R190: - x_189 + y_189 >= 0 
R191: - x_190 + y_190 >= 0 
R192: - x_191 + y_191 >= 0 
R193: - x_192 + y_192 >= 0 
R194: - x_193 + y_193 >= 0 
R195: - x_194 + y_194 >= 0 
R196: - x_195 + y_195 >= 0 
R197: - x_196 + y_196 >= 0 
R198: - x_197 + y_197 >= 0 
R199: - x_198 + y_198 >= 0 
R200: - x_199 + y_199 >= 0 
R201: - x_200 + y_200 >= 0 
R202: - x_201 + y_201 >= 0 
R203: - x_202 + y_202 >= 0 
R204: - x_203 + y_203 >= 0 
R205: - x_204 + y_204 >= 0 
R206: - x_205 + y_205 >= 0 
R207: - x_206 + y_206 >= 0 
R208: - x_207 + y_207 >= 0 
R209: - x_208 + y_208 >= 0 
R210: - x_209 + y_209 >= 0 
R211: - x_210 + y_210 >= 0 
R212: - x_211 + y_211 >= 0 
R213: - x_212 + y_212 >= 0 
R214: - x_213 + y_213 >= 0 
R215: - x_214 + y_214 >= 0 
R216: - x_215 + y_215 >= 0 
R217: - x_216 + y_216 >= 0 
R218: - x_217 + y_217 >= 0 
R219: - x_218 + y_218 >= 0 
R220: - x_219 + y_219 >= 0 
R221: - x_220 + y_220 >= 0 
R222: - x_221 + y_221 >= 0 
R223: - x_222 + y_222 >= 0 
R224: - x_223 + y_223 >= 0 
R225: - x_224 + y_224 >= 0 
R226: - x_225 + y_225 >= 0 
R227: - x_226 + y_226 >= 0 
R228: - x_227 + y_227 >= 0 
R229: - x_228 + y_228 >= 0 
R230: - x_229 + y_229 >= 0 
R231: - x_230 + y_230 >= 0 
R232: - x_231 + y_231 >= 0 
R233: - x_232 + y_232 >= 0 
R234: - x_233 + y_233 >= 0 
R235: - x_234 + y_234 >= 0 
R236: - x_235 + y_235 >= 0 
R237: - x_236 + y_236 >= 0 
R238: - x_237 + y_237 >= 0 
R239: - x_238 + y_238 >= 0 
R240: - x_239 + y_239 >= 0 
R241: - x_240 + y_240 >= 0 
R242: - x_241 + y_241 >= 0 
R243: - x_242 + y_242 >= 0 
R244: - x_243 + y_243 >= 0 
R245: - x_244 + y_244 >= 0 
R246: - x_245 + y_245 >= 0 
R247: - x_246 + y_246 >= 0 
R248: - x_247 + y_247 >= 0 
R249: - x_248 + y_248 >= 0 
R250: - x_249 + y_249 >= 0 
R251: y_0 - z_0 <= 0 
R252: y_1 - z_1 <= 0 
R253: y_2 - z_2 <= 0 
R254: y_3 - z_3 <= 0 
R255: y_4 - z_4 <= 0 
R256: y_5 - z_5 <= 0 
R257: y_6 - z_6 <= 0 
R258: y_7 - z_7 <= 0 
R259: y_8 - z_8 <= 0 
R260: y_9 - z_9 <= 0 
R261: y_10 - z_10 <= 0 
R262: y_11 - z_11 <= 0 
R263: y_12 - z_12 <= 0 
R264: y_13 - z_13 <= 0 
R265: y_14 - z_14 <= 0 
R266: y_15 - z_15 <= 0 
R267: y_16 - z_16 <= 0 
R268: y_17 - z_17 <= 0 
R269: y_18 - z_18 <= 0 
R270: y_19 - z_19 <= 0 
R271: y_20 - z_20 <= 0 
R272: y_21 - z_21 <= 0 
R273: y_22 - z_22 <= 0 
R274: y_23 - z_23 <= 0 
R275: y_24 - z_24 <= 0 
R276: y_25 - z_25 <= 0 
R277: y_26 - z_26 <= 0 
R278: y_27 - z_27 <= 0 
R279: y_28 - z_28 <= 0 
R280: y_29 - z_29 <= 0 
R281: y_30 - z_30 <= 0 
R282: y_31 - z_31 <= 0 
R283: y_32 - z_32 <= 0 
R284: y_33 - z_33 <= 0 
R285: y_34 - z_34 <= 0 
R286: y_35 - z_35 <= 0 
R287: y_36 - z_36 <= 0 
R288: y_37 - z_37 <= 0 
R289: y_38 - z_38 <= 0 
R290: y_39 - z_39 <= 0 
R291: y_40 - z_40 <= 0 
R292: y_41 - z_41 <= 0 
R293: y_42 - z_42 <= 0 
R294: y_43 - z_43 <= 0 
R295: y_44 - z_44 <= 0 
R296: y_45 - z_45 <= 0 
R297: y_46 - z_46 <= 0 
R298: y_47 - z_47 <= 0 
R299: y_48 - z_48 <= 0 
R300: y_49 - z_49 <= 0 
R301: y_50 - z_50 <= 0 
R302: y_51 - z_51 <= 0 
R303: y_52 - z_52 <= 0 
R304: y_53 - z_53 <= 0 
R305: y_54 - z_54 <= 0 
R306: y_55 - z_55 <= 0 
R307: y_56 - z_56 <= 0 
R308: y_57 - z_57 <= 0 
R309: y_58 - z_58 <= 0 
R310: y_59 - z_59 <= 0 
R311: y_60 - z_60 <= 0 
R312: y_61 - z_61 <= 0 
R313: y_62 - z_62 <= 0 
R314: y_63 - z_63 <= 0 
R315: y_64 - z_64 <= 0 
R316: y_65 - z_65 <= 0 
R317: y_66 - z_66 <= 0 
R318: y_67 - z_67 <= 0 
R319: y_68 - z_68 <= 0 
R320: y_69 - z_69 <= 0 
R321: y_70 - z_70 <= 0 
R322: y_71 - z_71 <= 0 
R323: y_72 - z_72 <= 0 
R324: y_73 - z_73 <= 0 
R325: y_74 - z_74 <= 0 
R326: y_75 - z_75 <= 0 
R327: y_76 - z_76 <= 0 
R328: y_77 - z_77 <= 0 
R329: y_78 - z_78 <= 0 
R330: y_79 - z_79 <= 0 
R331: y_80 - z_80 <= 0 
R332: y_81 - z_81 <= 0 
R333: y_82 - z_82 <= 0 
R334: y_83 - z_83 <= 0 
R335: y_84 - z_84 <= 0 
R336: y_85 - z_85 <= 0 
R337: y_86 - z_86 <= 0 
R338: y_87 - z_87 <= 0 
R339: y_88 - z_88 <= 0 
R340: y_89 - z_89 <= 0 
R341: y_90 - z_90 <= 0 
R342: y_91 - z_91 <= 0 
R343: y_92 - z_92 <= 0 
R344: y_93 - z_93 <= 0 
R345: y_94 - z_94 <= 0 
R346: y_95 - z_95 <= 0 
R347: y_96 - z_96 <= 0 
R348: y_97 - z_97 <= 0 
R349: y_98 - z_98 <= 0 
R350: y_99 - z_99 <= 0 
R351: y_100 - z_100 <= 0 
R352: y_101 - z_101 <= 0 
R353: y_102 - z_102 <= 0 
R354: y_103 - z_103 <= 0 
R355: y_104 - z_104 <= 0 
R356: y_105 - z_105 <= 0 
R357: y_106 - z_106 <= 0 
R358: y_107 - z_107 <= 0 
R359: y_108 - z_108 <= 0 
R360: y_109 - z_109 <= 0 
R361: y_110 - z_110 <= 0 
R362: y_111 - z_111 <= 0 
R363: y_112 - z_112 <= 0 
R364: y_113 - z_113 <= 0 
R365: y_114 - z_114 <= 0 
R366: y_115 - z_115 <= 0 
R367: y_116 - z_116 <= 0 
R368: y_117 - z_117 <= 0 
R369: y_118 - z_118 <= 0 
R370: y_119 - z_119 <= 0 
R371: y_120 - z_120 <= 0 
R372: y_121 - z_121 <= 0 
R373: y_122 - z_122 <= 0 
R374: y_123 - z_123 <= 0 
R375: y_124 - z_124 <= 0 
R376: y_125 - z_125 <= 0 
R377: y_126 - z_126 <= 0 
R378: y_127 - z_127 <= 0 
R379: y_128 - z_128 <= 0 
R380: y_129 - z_129 <= 0 
R381: y_130 - z_130 <= 0 
R382: y_131 - z_131 <= 0 
R383: y_132 - z_132 <= 0 
R384: y_133 - z_133 <= 0 
R385: y_134 - z_134 <= 0 
R386: y_135 - z_135 <= 0 
R387: y_136 - z_136 <= 0 
R388: y_137 - z_137 <= 0 
R389: y_138 - z_138 <= 0 
R390: y_139 - z_139 <= 0 
R391: y_140 - z_140 <= 0 
R392: y_141 - z_141 <= 0 
R393: y_142 - z_142 <= 0 
R394: y_143 - z_143 <= 0 
R395: y_144 - z_144 <= 0 
R396: y_145 - z_145 <= 0 
R397: y_146 - z_146 <= 0 
R398: y_147 - z_147 <= 0 
R399: y_148 - z_148 <= 0 
R400: y_149 - z_149 <= 0 
R401: y_150 - z_150 <= 0 
R402: y_151 - z_151 <= 0 
R403: y_152 - z_152 <= 0 
R404: y_153 - z_153 <= 0 
R405: y_154 - z_154 <= 0 
R406: y_155 - z_155 <= 0 
R407: y_156 - z_156 <= 0 
R408: y_157 - z_157 <= 0 
R409: y_158 - z_158 <= 0 
R410: y_159 - z_159 <= 0 
R411: y_160 - z_160 <= 0 
R412: y_161 - z_161 <= 0 
R413: y_162 - z_162 <= 0 
R414: y_163 - z_163 <= 0 
R415: y_164 - z_164 <= 0 
R416: y_165 - z_165 <= 0 
R417: y_166 - z_166 <= 0 
R418: y_167 - z_167 <= 0 
R419: y_168 - z_168 <= 0 
R420: y_169 - z_169 <= 0 
R421: y_170 - z_170 <= 0 
R422: y_171 - z_171 <= 0 
R423: y_172 - z_172 <= 0 
R424: y_173 - z_173 <= 0 
R425: y_174 - z_174 <= 0 
R426: y_175 - z_175 <= 0 
R427: y_176 - z_176 <= 0 
R428: y_177 - z_177 <= 0 
R429: y_178 - z_178 <= 0 
R430: y_179 - z_179 <= 0 
R431: y_180 - z_180 <= 0 
R432: y_181 - z_181 <= 0 
R433: y_182 - z_182 <= 0 
R434: y_183 - z_183 <= 0 
R435: y_184 - z_184 <= 0 
R436: y_185 - z_185 <= 0 
R437: y_186 - z_186 <= 0 
R438: y_187 - z_187 <= 0 
R439: y_188 - z_188 <= 0 
R440: y_189 - z_189 <= 0 
R441: y_190 - z_190 <= 0 
R442: y_191 - z_191 <= 0 
R443: y_192 - z_192 <= 0 
R444: y_193 - z_193 <= 0 
R445: y_194 - z_194 <= 0 
R446: y_195 - z_195 <= 0 
R447: y_196 - z_196 <= 0 
R448: y_197 - z_197 <= 0 
R449: y_198 - z_198 <= 0 
R450: y_199 - z_199 <= 0 
R451: y_200 - z_200 <= 0 
R452: y_201 - z_201 <= 0 
R453: y_202 - z_202 <= 0 
R454: y_203 - z_203 <= 0 
R455: y_204 - z_204 <= 0 
R456: y_205 - z_205 <= 0 
R457: y_206 - z_206 <= 0 
R458: y_207 - z_207 <= 0 
R459: y_208 - z_208 <= 0 
R460: y_209 - z_209 <= 0 
R461: y_210 - z_210 <= 0 
R462: y_211 - z_211 <= 0 
R463: y_212 - z_212 <= 0 
R464: y_213 - z_213 <= 0 
R465: y_214 - z_214 <= 0 
R466: y_215 - z_215 <= 0 
R467: y_216 - z_216 <= 0 
R468: y_217 - z_217 <= 0 
R469: y_218 - z_218 <= 0 
R470: y_219 - z_219 <= 0 
R471: y_220 - z_220 <= 0 
R472: y_221 - z_221 <= 0 
R473: y_222 - z_222 <= 0 
R474: y_223 - z_223 <= 0 
R475: y_224 - z_224 <= 0 
R476: y_225 - z_225 <= 0 
R477: y_226 - z_226 <= 0 
R478: y_227 - z_227 <= 0 
R479: y_228 - z_228 <= 0 
R480: y_229 - z_229 <= 0 
R481: y_230 - z_230 <= 0 
R482: y_231 - z_231 <= 0 
R483: y_232 - z_232 <= 0 
R484: y_233 - z_233 <= 0 
R485: y_234 - z_234 <= 0 
R486: y_235 - z_235 <= 0 
R487: y_236 - z_236 <= 0 
R488: y_237 - z_237 <= 0 
R489: y_238 - z_238 <= 0 
R490: y_239 - z_239 <= 0 
R491: y_240 - z_240 <= 0 
R492: y_241 - z_241 <= 0 
R493: y_242 - z_242 <= 0 
R494: y_243 - z_243 <= 0 
R495: y_244 - z_244 <= 0 
R496: y_245 - z_245 <= 0 
R497: y_246 - z_246 <= 0 
R498: y_247 - z_247 <= 0 
R499: y_248 - z_248 <= 0 
R500: y_249 - z_249 <= 0 
R501: y_0 >= 0 
R502: y_1 >= 0 
R503: y_2 >= -22 
R504: y_3 >= -70 
R505: y_4 >= 0 
R506: y_5 >= 0 
R507: y_6 >= 8 
R508: y_7 >= 0 
R509: y_8 >= 0 
R510: y_9 >= 0 
R511: y_10 >= 42 
R512: y_11 >= 0 
R513: y_12 >= 0 
R514: y_13 >= 0 
R515: y_14 >= 0 
R516: y_15 >= 0 
R517: y_16 >= -22 
R518: y_17 >= 66 
R519: y_18 >= -76 
R520: y_19 >= 0 
R521: y_20 >= 0 
R522: y_21 >= 0 
R523: y_22 >= 54 
R524: y_23 >= 0 
R525: y_24 >= 0 
R526: y_25 >= 0 
R527: y_26 >= 0 
R528: y_27 >= 0 
R529: y_28 >= 76 
R530: y_29 >= 0 
R531: y_30 >= 0 
R532: y_31 >= 0 
R533: y_32 >= 0 
R534: y_33 >= -26 
R535: y_34 >= 0 
R536: y_35 >= 0 
R537: y_36 >= -98 
R538: y_37 >= 0 
R539: y_38 >= 0 
R540: y_39 >= 0 
R541: y_40 >= 20 
R542: y_41 >= -24 
R543: y_42 >= 0 
R544: y_43 >= 6 
R545: y_44 >= 0 
R546: y_45 >= 0 
R547: y_46 >= 0 
R548: y_47 >= 0 
R549: y_48 >= 0 
R550: y_49 >= 0 
R551: y_50 >= 0 
R552: y_51 >= 0 
R553: y_52 >= 0 
R554: y_53 >= -38 
R555: y_54 >= 0 
R556: y_55 >= 24 
R557: y_56 >= 0 
R558: y_57 >= 0 
R559: y_58 >= -102 
R560: y_59 >= 0 
R561: y_60 >= 0 
R562: y_61 >= -40 
R563: y_62 >= 0 
R564: y_63 >= 0 
R565: y_64 >= -58 
R566: y_65 >= 92 
R567: y_66 >= 0 
R568: y_67 >= -4 
R569: y_68 >= 158 
R570: y_69 >= 0 
R571: y_70 >= -12 
R572: y_71 >= 0 
R573: y_72 >= 0 
R574: y_73 >= 0 
R575: y_74 >= 0 
R576: y_75 >= 0 
R577: y_76 >= -10 
R578: y_77 >= 208 
R579: y_78 >= 0 
R580: y_79 >= 0 
R581: y_80 >= 0 
R582: y_81 >= 20 
R583: y_82 >= 0 
R584: y_83 >= 0 
R585: y_84 >= 0 
R586: y_85 >= 4 
R587: y_86 >= 24 
R588: y_87 >= -6 
R589: y_88 >= 0 
R590: y_89 >= 0 
R591: y_90 >= 0 
R592: y_91 >= 98 
R593: y_92 >= -20 
R594: y_93 >= 0 
R595: y_94 >= 0 
R596: y_95 >= 0 
R597: y_96 >= 0 
R598: y_97 >= -126 
R599: y_98 >= 0 
R600: y_99 >= -8 
R601: y_100 >= 0 
R602: y_101 >= 0 
R603: y_102 >= 0 
R604: y_103 >= 0 
R605: y_104 >= 0 
R606: y_105 >= 0 
R607: y_106 >= -8 
R608: y_107 >= -374 
R609: y_108 >= 0 
R610: y_109 >= 0 
R611: y_110 >= 0 
R612: y_111 >= 0 
R613: y_112 >= 0 
R614: y_113 >= 216 
R615: y_114 >= 0 
R616: y_115 >= 0 
R617: y_116 >= 0 
R618: y_117 >= 0 
R619: y_118 >= 0 
R620: y_119 >= -62 
R621: y_120 >= 0 
R622: y_121 >= 0 
R623: y_122 >= 0 
R624: y_123 >= 0 
R625: y_124 >= 0 
R626: y_125 >= 0 
R627: y_126 >= 0 
R628: y_127 >= 0 
R629: y_128 >= 0 
R630: y_129 >= -114 
R631: y_130 >= -116 
R632: y_131 >= -84 
R633: y_132 >= 0 
R634: y_133 >= 0 
R635: y_134 >= -8 
R636: y_135 >= 0 
R637: y_136 >= 0 
R638: y_137 >= 20 
R639: y_138 >= 0 
R640: y_139 >= 0 
R641: y_140 >= 14 
R642: y_141 >= 42 
R643: y_142 >= 0 
R644: y_143 >= 248 
R645: y_144 >= -34 
R646: y_145 >= 0 
R647: y_146 >= 0 
R648: y_147 >= 0 
R649: y_148 >= 0 
R650: y_149 >= -10 
R651: y_150 >= 0 
R652: y_151 >= 0 
R653: y_152 >= 0 
R654: y_153 >= 0 
R655: y_154 >= 0 
R656: y_155 >= 0 
R657: y_156 >= 0 
R658: y_157 >= 0 
R659: y_158 >= 0 
R660: y_159 >= 36 
R661: y_160 >= 0 
R662: y_161 >= 0 
R663: y_162 >= 0 
R664: y_163 >= 0 
R665: y_164 >= 8 
R666: y_165 >= 0 
R667: y_166 >= 0 
R668: y_167 >= 0 
R669: y_168 >= 0 
R670: y_169 >= 0 
R671: y_170 >= -90 
R672: y_171 >= 0 
R673: y_172 >= -10 
R674: y_173 >= 0 
R675: y_174 >= 0 
R676: y_175 >= 104 
R677: y_176 >= -272 
R678: y_177 >= -210 
R679: y_178 >= 0 
R680: y_179 >= 0 
R681: y_180 >= -8 
R682: y_181 >= -44 
R683: y_182 >= 0 
R684: y_183 >= 6 
R685: y_184 >= 0 
R686: y_185 >= 86 
R687: y_186 >= 0 
R688: y_187 >= 0 
R689: y_188 >= 0 
R690: y_189 >= 0 
R691: y_190 >= 0 
R692: y_191 >= 0 
R693: y_192 >= 0 
R694: y_193 >= 0 
R695: y_194 >= 0 
R696: y_195 >= -96 
R697: y_196 >= -64 
R698: y_197 >= 0 
R699: y_198 >= 60 
R700: y_199 >= 0 
R701: y_200 >= 0 
R702: y_201 >= 290 
R703: y_202 >= -62 
R704: y_203 >= 68 
R705: y_204 >= 0 
R706: y_205 >= 0 
R707: y_206 >= 0 
R708: y_207 >= 54 
R709: y_208 >= 72 
R710: y_209 >= -118 
R711: y_210 >= 0 
R712: y_211 >= 0 
R713: y_212 >= 0 
R714: y_213 >= 274 
R715: y_214 >= -8 
R716: y_215 >= 64 
R717: y_216 >= -12 
R718: y_217 >= 0 
R719: y_218 >= 0 
R720: y_219 >= -46 
R721: y_220 >= 0 
R722: y_221 >= 8 
R723: y_222 >= 0 
R724: y_223 >= 0 
R725: y_224 >= 0 
R726: y_225 >= 0 
R727: y_226 >= 0 
R728: y_227 >= 6 
R729: y_228 >= 0 
R730: y_229 >= 12 
R731: y_230 >= -36 
R732: y_231 >= 0 
R733: y_232 >= 0 
R734: y_233 >= 0 
R735: y_234 >= 12 
R736: y_235 >= 0 
R737: y_236 >= 0 
R738: y_237 >= -84 
R739: y_238 >= 4 
R740: y_239 >= 12 
R741: y_240 >= 0 
R742: y_241 >= 0 
R743: y_242 >= 0 
R744: y_243 >= 0 
R745: y_244 >= 0 
R746: y_245 >= 150 
R747: y_246 >= -34 
R748: y_247 >= 0 
R749: y_248 >= 0 
R750: y_249 >= 0 
R751: y_0 + y_1 + y_2 + y_3 + y_4 + y_5 + y_6 + y_7 + y_8 + y_9 + y_10 + y_11
          + y_12 + y_13 + y_14 + y_15 + y_16 + y_17 + y_18 + y_19 + y_20 + y_21
          + y_22 + y_23 + y_24 + y_25 + y_26 + y_27 + y_28 + y_29 + y_30 + y_31
          + y_32 + y_33 + y_34 + y_35 + y_36 + y_37 + y_38 + y_39 + y_40 + y_41
          + y_42 + y_43 + y_44 + y_45 + y_46 + y_47 + y_48 + y_49 + y_50 + y_51
          + y_52 + y_53 + y_54 + y_55 + y_56 + y_57 + y_58 + y_59 + y_60 + y_61
          + y_62 + y_63 + y_64 + y_65 + y_66 + y_67 + y_68 + y_69 + y_70 + y_71
          + y_72 + y_73 + y_74 + y_75 + y_76 + y_77 + y_78 + y_79 + y_80 + y_81
          + y_82 + y_83 + y_84 + y_85 + y_86 + y_87 + y_88 + y_89 + y_90 + y_91
          + y_92 + y_93 + y_94 + y_95 + y_96 + y_97 + y_98 + y_99 + y_100
          + y_101 + y_102 + y_103 + y_104 + y_105 + y_106 + y_107 + y_108
          + y_109 + y_110 + y_111 + y_112 + y_113 + y_114 + y_115 + y_116
          + y_117 + y_118 + y_119 + y_120 + y_121 + y_122 + y_123 + y_124
          + y_125 + y_126 + y_127 + y_128 + y_129 + y_130 + y_131 + y_132
          + y_133 + y_134 + y_135 + y_136 + y_137 + y_138 + y_139 + y_140
          + y_141 + y_142 + y_143 + y_144 + y_145 + y_146 + y_147 + y_148
          + y_149 + y_150 + y_151 + y_152 + y_153 + y_154 + y_155 + y_156
          + y_157 + y_158 + y_159 + y_160 + y_161 + y_162 + y_163 + y_164
          + y_165 + y_166 + y_167 + y_168 + y_169 + y_170 + y_171 + y_172
          + y_173 + y_174 + y_175 + y_176 + y_177 + y_178 + y_179 + y_180
          + y_181 + y_182 + y_183 + y_184 + y_185 + y_186 + y_187 + y_188
          + y_189 + y_190 + y_191 + y_192 + y_193 + y_194 + y_195 + y_196
          + y_197 + y_198 + y_199 + y_200 + y_201 + y_202 + y_203 + y_204
          + y_205 + y_206 + y_207 + y_208 + y_209 + y_210 + y_211 + y_212
          + y_213 + y_214 + y_215 + y_216 + y_217 + y_218 + y_219 + y_220
          + y_221 + y_222 + y_223 + y_224 + y_225 + y_226 + y_227 + y_228
          + y_229 + y_230 + y_231 + y_232 + y_233 + y_234 + y_235 + y_236
          + y_237 + y_238 + y_239 + y_240 + y_241 + y_242 + y_243 + y_244
          + y_245 + y_246 + y_247 + y_248 + y_249 + z_0 + z_1 + z_2 + z_3 + z_4
          + z_5 + z_6 + z_7 + z_8 + z_9 + z_10 + z_11 + z_12 + z_13 + z_14
          + z_15 + z_16 + z_17 + z_18 + z_19 + z_20 + z_21 + z_22 + z_23 + z_24
          + z_25 + z_26 + z_27 + z_28 + z_29 + z_30 + z_31 + z_32 + z_33 + z_34
          + z_35 + z_36 + z_37 + z_38 + z_39 + z_40 + z_41 + z_42 + z_43 + z_44
          + z_45 + z_46 + z_47 + z_48 + z_49 + z_50 + z_51 + z_52 + z_53 + z_54
          + z_55 + z_56 + z_57 + z_58 + z_59 + z_60 + z_61 + z_62 + z_63 + z_64
          + z_65 + z_66 + z_67 + z_68 + z_69 + z_70 + z_71 + z_72 + z_73 + z_74
          + z_75 + z_76 + z_77 + z_78 + z_79 + z_80 + z_81 + z_82 + z_83 + z_84
          + z_85 + z_86 + z_87 + z_88 + z_89 + z_90 + z_91 + z_92 + z_93 + z_94
          + z_95 + z_96 + z_97 + z_98 + z_99 + z_100 + z_101 + z_102 + z_103
          + z_104 + z_105 + z_106 + z_107 + z_108 + z_109 + z_110 + z_111
          + z_112 + z_113 + z_114 + z_115 + z_116 + z_117 + z_118 + z_119
          + z_120 + z_121 + z_122 + z_123 + z_124 + z_125 + z_126 + z_127
          + z_128 + z_129 + z_130 + z_131 + z_132 + z_133 + z_134 + z_135
          + z_136 + z_137 + z_138 + z_139 + z_140 + z_141 + z_142 + z_143
          + z_144 + z_145 + z_146 + z_147 + z_148 + z_149 + z_150 + z_151
          + z_152 + z_153 + z_154 + z_155 + z_156 + z_157 + z_158 + z_159
          + z_160 + z_161 + z_162 + z_163 + z_164 + z_165 + z_166 + z_167
          + z_168 + z_169 + z_170 + z_171 + z_172 + z_173 + z_174 + z_175
          + z_176 + z_177 + z_178 + z_179 + z_180 + z_181 + z_182 + z_183
          + z_184 + z_185 + z_186 + z_187 + z_188 + z_189 + z_190 + z_191
          + z_192 + z_193 + z_194 + z_195 + z_196 + z_197 + z_198 + z_199
          + z_200 + z_201 + z_202 + z_203 + z_204 + z_205 + z_206 + z_207
          + z_208 + z_209 + z_210 + z_211 + z_212 + z_213 + z_214 + z_215
          + z_216 + z_217 + z_218 + z_219 + z_220 + z_221 + z_222 + z_223
          + z_224 + z_225 + z_226 + z_227 + z_228 + z_229 + z_230 + z_231
          + z_232 + z_233 + z_234 + z_235 + z_236 + z_237 + z_238 + z_239
          + z_240 + z_241 + z_242 + z_243 + z_244 + z_245 + z_246 + z_247
          + z_248 + z_249 <= 1800000 
R752: 75252.60000000003 x_3 + 20558.699999999997 x_6 + 32583.6 x_10
          + 15128.099999999997 x_16 + 85725.90000000002 x_17
          + 70985.70000000001 x_18 + 70209.90000000002 x_22
          + 36850.49999999999 x_28 + 28704.59999999999 x_33 + 31807.8 x_36
          + 18231.3 x_40 + 24437.699999999997 x_41 + 1939.5 x_43
          + 11249.099999999999 x_53 + 60124.5 x_55 + 21334.499999999996 x_58
          + 13576.5 x_61 + 59348.70000000002 x_64 + 72149.4 x_65
          + 5430.599999999999 x_67 + 84950.10000000003 x_68 + 1939.5 x_70
          + 34523.09999999999 x_76 + 55081.799999999996 x_77
          + 169512.30000000002 x_81 + 5042.700000000001 x_85 + 46935.9 x_86
          + 31807.8 x_87 + 53142.3 x_91 + 20946.600000000002 x_92
          + 55081.80000000002 x_97 + 22886.100000000002 x_99
          + 28704.599999999988 x_106 + 60512.4 x_107 + 88053.30000000005 x_113
          + 1163.7 x_114 + 29868.299999999985 x_119 + 35686.8 x_129
          + 38014.2 x_130 + 43056.89999999999 x_131 + 11249.099999999999 x_134
          + 11249.099999999999 x_137 + 43444.79999999999 x_140 + 27153 x_141
          + 102793.5 x_143 + 2715.3 x_144 + 5430.6 x_149
          + 62064.00000000002 x_159 + 20170.799999999996 x_160
          + 44220.600000000006 x_164 + 45772.2 x_170 + 11249.1 x_172
          + 62064.000000000015 x_175 + 51590.70000000002 x_176
          + 70597.80000000002 x_177 + 101629.80000000002 x_180
          + 20170.799999999996 x_181 + 4654.8 x_183 + 51978.60000000003 x_185
          + 77967.90000000001 x_195 + 87665.40000000004 x_196
          + 48487.49999999999 x_198 + 121412.70000000004 x_201
          + 20946.600000000002 x_202 + 90380.7 x_203 + 41893.200000000004 x_207
          + 70985.70000000001 x_208 + 33747.299999999996 x_209
          + 123740.10000000003 x_213 + 1551.6000000000001 x_214
          + 107060.4 x_215 + 67882.49999999999 x_216 + 56633.4 x_219
          + 2327.4 x_221 + 1939.5 x_227 + 72925.20000000003 x_229
          + 48487.5 x_230 + 25601.39999999999 x_234 + 7758.000000000002 x_236
          + 42668.99999999999 x_237 + 25213.499999999996 x_238
          + 4266.900000000001 x_239 + 82234.80000000002 x_245
          + 26765.09999999999 x_246 >= 5 

Bounds

Generals
y_0 y_1 y_2 y_3 y_4 y_5 y_6 y_7 y_8 y_9 y_10 y_11 y_12 y_13 y_14 y_15 y_16 
y_17 y_18 y_19 y_20 y_21 y_22 y_23 y_24 y_25 y_26 y_27 y_28 y_29 y_30 y_31 
y_32 y_33 y_34 y_35 y_36 y_37 y_38 y_39 y_40 y_41 y_42 y_43 y_44 y_45 y_46 
y_47 y_48 y_49 y_50 y_51 y_52 y_53 y_54 y_55 y_56 y_57 y_58 y_59 y_60 y_61 
y_62 y_63 y_64 y_65 y_66 y_67 y_68 y_69 y_70 y_71 y_72 y_73 y_74 y_75 y_76 
y_77 y_78 y_79 y_80 y_81 y_82 y_83 y_84 y_85 y_86 y_87 y_88 y_89 y_90 y_91 
y_92 y_93 y_94 y_95 y_96 y_97 y_98 y_99 y_100 y_101 y_102 y_103 y_104 y_105 
y_106 y_107 y_108 y_109 y_110 y_111 y_112 y_113 y_114 y_115 y_116 y_117 y_118 
y_119 y_120 y_121 y_122 y_123 y_124 y_125 y_126 y_127 y_128 y_129 y_130 y_131 
y_132 y_133 y_134 y_135 y_136 y_137 y_138 y_139 y_140 y_141 y_142 y_143 y_144 
y_145 y_146 y_147 y_148 y_149 y_150 y_151 y_152 y_153 y_154 y_155 y_156 y_157 
y_158 y_159 y_160 y_161 y_162 y_163 y_164 y_165 y_166 y_167 y_168 y_169 y_170 
y_171 y_172 y_173 y_174 y_175 y_176 y_177 y_178 y_179 y_180 y_181 y_182 y_183 
y_184 y_185 y_186 y_187 y_188 y_189 y_190 y_191 y_192 y_193 y_194 y_195 y_196 
y_197 y_198 y_199 y_200 y_201 y_202 y_203 y_204 y_205 y_206 y_207 y_208 y_209 
y_210 y_211 y_212 y_213 y_214 y_215 y_216 y_217 y_218 y_219 y_220 y_221 y_222 
y_223 y_224 y_225 y_226 y_227 y_228 y_229 y_230 y_231 y_232 y_233 y_234 y_235 
y_236 y_237 y_238 y_239 y_240 y_241 y_242 y_243 y_244 y_245 y_246 y_247 y_248 
y_249 z_0 z_1 z_2 z_3 z_4 z_5 z_6 z_7 z_8 z_9 z_10 z_11 z_12 z_13 z_14 z_15 
z_16 z_17 z_18 z_19 z_20 z_21 z_22 z_23 z_24 z_25 z_26 z_27 z_28 z_29 z_30 
z_31 z_32 z_33 z_34 z_35 z_36 z_37 z_38 z_39 z_40 z_41 z_42 z_43 z_44 z_45 
z_46 z_47 z_48 z_49 z_50 z_51 z_52 z_53 z_54 z_55 z_56 z_57 z_58 z_59 z_60 
z_61 z_62 z_63 z_64 z_65 z_66 z_67 z_68 z_69 z_70 z_71 z_72 z_73 z_74 z_75 
z_76 z_77 z_78 z_79 z_80 z_81 z_82 z_83 z_84 z_85 z_86 z_87 z_88 z_89 z_90 
z_91 z_92 z_93 z_94 z_95 z_96 z_97 z_98 z_99 z_100 z_101 z_102 z_103 z_104 
z_105 z_106 z_107 z_108 z_109 z_110 z_111 z_112 z_113 z_114 z_115 z_116 z_117 
z_118 z_119 z_120 z_121 z_122 z_123 z_124 z_125 z_126 z_127 z_128 z_129 z_130 
z_131 z_132 z_133 z_134 z_135 z_136 z_137 z_138 z_139 z_140 z_141 z_142 z_143 
z_144 z_145 z_146 z_147 z_148 z_149 z_150 z_151 z_152 z_153 z_154 z_155 z_156 
z_157 z_158 z_159 z_160 z_161 z_162 z_163 z_164 z_165 z_166 z_167 z_168 z_169 
z_170 z_171 z_172 z_173 z_174 z_175 z_176 z_177 z_178 z_179 z_180 z_181 z_182 
z_183 z_184 z_185 z_186 z_187 z_188 z_189 z_190 z_191 z_192 z_193 z_194 z_195 
z_196 z_197 z_198 z_199 z_200 z_201 z_202 z_203 z_204 z_205 z_206 z_207 z_208 
z_209 z_210 z_211 z_212 z_213 z_214 z_215 z_216 z_217 z_218 z_219 z_220 z_221 
z_222 z_223 z_224 z_225 z_226 z_227 z_228 z_229 z_230 z_231 z_232 z_233 z_234 
z_235 z_236 z_237 z_238 z_239 z_240 z_241 z_242 z_243 z_244 z_245 z_246 z_247 
z_248 z_249 

Binaries
x_0 x_1 x_2 x_3 x_4 x_5 x_6 x_7 x_8 x_9 x_10 x_11 x_12 x_13 x_14 x_15 x_16 
x_17 x_18 x_19 x_20 x_21 x_22 x_23 x_24 x_25 x_26 x_27 x_28 x_29 x_30 x_31 
x_32 x_33 x_34 x_35 x_36 x_37 x_38 x_39 x_40 x_41 x_42 x_43 x_44 x_45 x_46 
x_47 x_48 x_49 x_50 x_51 x_52 x_53 x_54 x_55 x_56 x_57 x_58 x_59 x_60 x_61 
x_62 x_63 x_64 x_65 x_66 x_67 x_68 x_69 x_70 x_71 x_72 x_73 x_74 x_75 x_76 
x_77 x_78 x_79 x_80 x_81 x_82 x_83 x_84 x_85 x_86 x_87 x_88 x_89 x_90 x_91 
x_92 x_93 x_94 x_95 x_96 x_97 x_98 x_99 x_100 x_101 x_102 x_103 x_104 x_105 
x_106 x_107 x_108 x_109 x_110 x_111 x_112 x_113 x_114 x_115 x_116 x_117 x_118 
x_119 x_120 x_121 x_122 x_123 x_124 x_125 x_126 x_127 x_128 x_129 x_130 x_131 
x_132 x_133 x_134 x_135 x_136 x_137 x_138 x_139 x_140 x_141 x_142 x_143 x_144 
x_145 x_146 x_147 x_148 x_149 x_150 x_151 x_152 x_153 x_154 x_155 x_156 x_157 
x_158 x_159 x_160 x_161 x_162 x_163 x_164 x_165 x_166 x_167 x_168 x_169 x_170 
x_171 x_172 x_173 x_174 x_175 x_176 x_177 x_178 x_179 x_180 x_181 x_182 x_183 
x_184 x_185 x_186 x_187 x_188 x_189 x_190 x_191 x_192 x_193 x_194 x_195 x_196 
x_197 x_198 x_199 x_200 x_201 x_202 x_203 x_204 x_205 x_206 x_207 x_208 x_209 
x_210 x_211 x_212 x_213 x_214 x_215 x_216 x_217 x_218 x_219 x_220 x_221 x_222 
x_223 x_224 x_225 x_226 x_227 x_228 x_229 x_230 x_231 x_232 x_233 x_234 x_235 
x_236 x_237 x_238 x_239 x_240 x_241 x_242 x_243 x_244 x_245 x_246 x_247 x_248 
x_249 

End
